c Path planning problem for ProbSAT
c Generated by gen_cnf.py
p cnf 610 989
1 2 3 4 5 6 7 8 9 10 11 12 13 14 15 0
16 17 18 19 20 21 22 23 24 25 26 27 28 29 30 0
31 32 33 34 35 36 37 38 39 40 41 42 43 44 45 0
46 47 48 49 50 51 52 53 54 55 56 57 58 59 60 0
61 62 63 64 65 66 67 68 69 70 71 72 73 74 75 0
76 77 78 79 80 81 82 83 84 85 86 87 88 89 90 0
91 92 93 94 95 96 97 98 99 100 101 102 103 104 105 0
106 107 108 109 110 111 112 113 114 115 116 117 118 119 120 0
121 122 123 124 125 126 127 128 129 130 131 132 133 134 135 0
136 137 138 139 140 141 142 143 144 145 146 147 148 149 150 0
151 152 153 154 155 156 157 158 159 160 161 162 163 164 165 0
166 167 168 169 170 171 172 173 174 175 176 177 178 179 180 0
181 182 183 184 185 186 187 188 189 190 191 192 193 194 195 0
196 197 198 199 200 201 202 203 204 205 206 207 208 209 210 0
211 212 213 214 215 216 217 218 219 220 221 222 223 224 225 0
226 227 228 229 230 231 232 233 234 235 236 237 238 239 240 0
241 242 243 244 245 246 247 248 249 250 251 252 253 254 255 0
256 257 258 259 260 261 262 263 264 265 266 267 268 269 270 0
271 272 273 274 275 276 277 278 279 280 281 282 283 284 285 0
286 287 288 289 290 291 292 293 294 295 296 297 298 299 300 0
301 302 303 304 305 306 307 308 309 310 311 312 313 314 315 0
316 317 318 319 320 321 322 323 324 325 326 327 328 329 330 0
331 332 333 334 335 336 337 338 339 340 341 342 343 344 345 0
346 347 348 349 350 351 352 353 354 355 356 357 358 359 360 0
361 362 363 364 365 366 367 368 369 370 371 372 373 374 375 0
376 377 378 379 380 381 382 383 384 385 386 387 388 389 390 0
391 392 393 394 395 396 397 398 399 400 401 402 403 404 405 0
406 407 408 409 410 411 412 413 414 415 416 417 418 419 420 0
421 422 423 424 425 426 427 428 429 430 431 432 433 434 435 0
436 437 438 439 440 441 442 443 444 445 446 447 448 449 450 0
451 452 453 454 455 456 457 458 459 460 461 462 463 464 465 0
466 467 468 469 470 471 472 473 474 475 476 477 478 479 480 0
481 482 483 484 485 486 487 488 489 490 491 492 493 494 495 0
496 497 498 499 500 501 502 503 504 505 506 507 508 509 510 0
511 512 513 514 515 516 517 518 519 520 521 522 523 524 525 0
526 527 528 529 530 531 532 533 534 535 536 537 538 539 540 0
541 542 543 544 545 546 547 548 549 550 551 552 553 554 555 0
556 557 558 559 560 561 562 563 564 565 566 567 568 569 570 0
571 572 573 574 575 576 577 578 579 580 581 582 583 584 585 0
586 587 588 589 590 591 592 593 594 595 596 597 598 599 600 0
-1 -301 0
-2 -302 0
-3 -303 0
-4 -304 0
-5 -305 0
-6 -306 0
-7 -307 0
-8 -308 0
-9 -309 0
-10 -310 0
-11 -311 0
-12 -312 0
-13 -313 0
-14 -314 0
-15 -315 0
-16 -316 0
-17 -317 0
-18 -318 0
-19 -319 0
-20 -320 0
-21 -321 0
-22 -322 0
-23 -323 0
-24 -324 0
-25 -325 0
-26 -326 0
-27 -327 0
-28 -328 0
-29 -329 0
-30 -330 0
-31 -331 0
-32 -332 0
-33 -333 0
-34 -334 0
-35 -335 0
-36 -336 0
-37 -337 0
-38 -338 0
-39 -339 0
-40 -340 0
-41 -341 0
-42 -342 0
-43 -343 0
-44 -344 0
-45 -345 0
-46 -346 0
-47 -347 0
-48 -348 0
-49 -349 0
-50 -350 0
-51 -351 0
-52 -352 0
-53 -353 0
-54 -354 0
-55 -355 0
-56 -356 0
-57 -357 0
-58 -358 0
-59 -359 0
-60 -360 0
-61 -361 0
-62 -362 0
-63 -363 0
-64 -364 0
-65 -365 0
-66 -366 0
-67 -367 0
-68 -368 0
-69 -369 0
-70 -370 0
-71 -371 0
-72 -372 0
-73 -373 0
-74 -374 0
-75 -375 0
-76 -376 0
-77 -377 0
-78 -378 0
-79 -379 0
-80 -380 0
-81 -381 0
-82 -382 0
-83 -383 0
-84 -384 0
-85 -385 0
-86 -386 0
-87 -387 0
-88 -388 0
-89 -389 0
-90 -390 0
-91 -391 0
-92 -392 0
-93 -393 0
-94 -394 0
-95 -395 0
-96 -396 0
-97 -397 0
-98 -398 0
-99 -399 0
-100 -400 0
-101 -401 0
-102 -402 0
-103 -403 0
-104 -404 0
-105 -405 0
-106 -406 0
-107 -407 0
-108 -408 0
-109 -409 0
-110 -410 0
-111 -411 0
-112 -412 0
-113 -413 0
-114 -414 0
-115 -415 0
-116 -416 0
-117 -417 0
-118 -418 0
-119 -419 0
-120 -420 0
-121 -421 0
-122 -422 0
-123 -423 0
-124 -424 0
-125 -425 0
-126 -426 0
-127 -427 0
-128 -428 0
-129 -429 0
-130 -430 0
-131 -431 0
-132 -432 0
-133 -433 0
-134 -434 0
-135 -435 0
-136 -436 0
-137 -437 0
-138 -438 0
-139 -439 0
-140 -440 0
-141 -441 0
-142 -442 0
-143 -443 0
-144 -444 0
-145 -445 0
-146 -446 0
-147 -447 0
-148 -448 0
-149 -449 0
-150 -450 0
-151 -451 0
-152 -452 0
-153 -453 0
-154 -454 0
-155 -455 0
-156 -456 0
-157 -457 0
-158 -458 0
-159 -459 0
-160 -460 0
-161 -461 0
-162 -462 0
-163 -463 0
-164 -464 0
-165 -465 0
-166 -466 0
-167 -467 0
-168 -468 0
-169 -469 0
-170 -470 0
-171 -471 0
-172 -472 0
-173 -473 0
-174 -474 0
-175 -475 0
-176 -476 0
-177 -477 0
-178 -478 0
-179 -479 0
-180 -480 0
-181 -481 0
-182 -482 0
-183 -483 0
-184 -484 0
-185 -485 0
-186 -486 0
-187 -487 0
-188 -488 0
-189 -489 0
-190 -490 0
-191 -491 0
-192 -492 0
-193 -493 0
-194 -494 0
-195 -495 0
-196 -496 0
-197 -497 0
-198 -498 0
-199 -499 0
-200 -500 0
-201 -501 0
-202 -502 0
-203 -503 0
-204 -504 0
-205 -505 0
-206 -506 0
-207 -507 0
-208 -508 0
-209 -509 0
-210 -510 0
-211 -511 0
-212 -512 0
-213 -513 0
-214 -514 0
-215 -515 0
-216 -516 0
-217 -517 0
-218 -518 0
-219 -519 0
-220 -520 0
-221 -521 0
-222 -522 0
-223 -523 0
-224 -524 0
-225 -525 0
-226 -526 0
-227 -527 0
-228 -528 0
-229 -529 0
-230 -530 0
-231 -531 0
-232 -532 0
-233 -533 0
-234 -534 0
-235 -535 0
-236 -536 0
-237 -537 0
-238 -538 0
-239 -539 0
-240 -540 0
-241 -541 0
-242 -542 0
-243 -543 0
-244 -544 0
-245 -545 0
-246 -546 0
-247 -547 0
-248 -548 0
-249 -549 0
-250 -550 0
-251 -551 0
-252 -552 0
-253 -553 0
-254 -554 0
-255 -555 0
-256 -556 0
-257 -557 0
-258 -558 0
-259 -559 0
-260 -560 0
-261 -561 0
-262 -562 0
-263 -563 0
-264 -564 0
-265 -565 0
-266 -566 0
-267 -567 0
-268 -568 0
-269 -569 0
-270 -570 0
-271 -571 0
-272 -572 0
-273 -573 0
-274 -574 0
-275 -575 0
-276 -576 0
-277 -577 0
-278 -578 0
-279 -579 0
-280 -580 0
-281 -581 0
-282 -582 0
-283 -583 0
-284 -584 0
-285 -585 0
-286 -586 0
-287 -587 0
-288 -588 0
-289 -589 0
-290 -590 0
-291 -591 0
-292 -592 0
-293 -593 0
-294 -594 0
-295 -595 0
-296 -596 0
-297 -597 0
-298 -598 0
-299 -599 0
-300 -600 0
-1 16 21 17 0
-2 17 18 16 0
-3 18 22 19 17 0
-4 19 23 20 18 0
-5 20 19 0
-6 21 24 16 0
-7 22 25 18 23 0
-8 23 26 19 22 0
-9 24 27 21 0
-10 25 22 26 0
-11 26 29 23 25 0
-12 27 24 28 0
-13 28 27 0
-14 29 26 30 0
-15 30 29 0
-16 31 36 32 0
-17 32 33 31 0
-18 33 37 34 32 0
-19 34 38 35 33 0
-20 35 34 0
-21 36 39 31 0
-22 37 40 33 38 0
-23 38 41 34 37 0
-24 39 42 36 0
-25 40 37 41 0
-26 41 44 38 40 0
-27 42 39 43 0
-28 43 42 0
-29 44 41 45 0
-30 45 44 0
-31 46 51 47 0
-32 47 48 46 0
-33 48 52 49 47 0
-34 49 53 50 48 0
-35 50 49 0
-36 51 54 46 0
-37 52 55 48 53 0
-38 53 56 49 52 0
-39 54 57 51 0
-40 55 52 56 0
-41 56 59 53 55 0
-42 57 54 58 0
-43 58 57 0
-44 59 56 60 0
-45 60 59 0
-46 61 66 62 0
-47 62 63 61 0
-48 63 67 64 62 0
-49 64 68 65 63 0
-50 65 64 0
-51 66 69 61 0
-52 67 70 63 68 0
-53 68 71 64 67 0
-54 69 72 66 0
-55 70 67 71 0
-56 71 74 68 70 0
-57 72 69 73 0
-58 73 72 0
-59 74 71 75 0
-60 75 74 0
-61 76 81 77 0
-62 77 78 76 0
-63 78 82 79 77 0
-64 79 83 80 78 0
-65 80 79 0
-66 81 84 76 0
-67 82 85 78 83 0
-68 83 86 79 82 0
-69 84 87 81 0
-70 85 82 86 0
-71 86 89 83 85 0
-72 87 84 88 0
-73 88 87 0
-74 89 86 90 0
-75 90 89 0
-76 91 96 92 0
-77 92 93 91 0
-78 93 97 94 92 0
-79 94 98 95 93 0
-80 95 94 0
-81 96 99 91 0
-82 97 100 93 98 0
-83 98 101 94 97 0
-84 99 102 96 0
-85 100 97 101 0
-86 101 104 98 100 0
-87 102 99 103 0
-88 103 102 0
-89 104 101 105 0
-90 105 104 0
-91 106 111 107 0
-92 107 108 106 0
-93 108 112 109 107 0
-94 109 113 110 108 0
-95 110 109 0
-96 111 114 106 0
-97 112 115 108 113 0
-98 113 116 109 112 0
-99 114 117 111 0
-100 115 112 116 0
-101 116 119 113 115 0
-102 117 114 118 0
-103 118 117 0
-104 119 116 120 0
-105 120 119 0
-106 121 126 122 0
-107 122 123 121 0
-108 123 127 124 122 0
-109 124 128 125 123 0
-110 125 124 0
-111 126 129 121 0
-112 127 130 123 128 0
-113 128 131 124 127 0
-114 129 132 126 0
-115 130 127 131 0
-116 131 134 128 130 0
-117 132 129 133 0
-118 133 132 0
-119 134 131 135 0
-120 135 134 0
-121 136 141 137 0
-122 137 138 136 0
-123 138 142 139 137 0
-124 139 143 140 138 0
-125 140 139 0
-126 141 144 136 0
-127 142 145 138 143 0
-128 143 146 139 142 0
-129 144 147 141 0
-130 145 142 146 0
-131 146 149 143 145 0
-132 147 144 148 0
-133 148 147 0
-134 149 146 150 0
-135 150 149 0
-136 151 156 152 0
-137 152 153 151 0
-138 153 157 154 152 0
-139 154 158 155 153 0
-140 155 154 0
-141 156 159 151 0
-142 157 160 153 158 0
-143 158 161 154 157 0
-144 159 162 156 0
-145 160 157 161 0
-146 161 164 158 160 0
-147 162 159 163 0
-148 163 162 0
-149 164 161 165 0
-150 165 164 0
-151 166 171 167 0
-152 167 168 166 0
-153 168 172 169 167 0
-154 169 173 170 168 0
-155 170 169 0
-156 171 174 166 0
-157 172 175 168 173 0
-158 173 176 169 172 0
-159 174 177 171 0
-160 175 172 176 0
-161 176 179 173 175 0
-162 177 174 178 0
-163 178 177 0
-164 179 176 180 0
-165 180 179 0
-166 181 186 182 0
-167 182 183 181 0
-168 183 187 184 182 0
-169 184 188 185 183 0
-170 185 184 0
-171 186 189 181 0
-172 187 190 183 188 0
-173 188 191 184 187 0
-174 189 192 186 0
-175 190 187 191 0
-176 191 194 188 190 0
-177 192 189 193 0
-178 193 192 0
-179 194 191 195 0
-180 195 194 0
-181 196 201 197 0
-182 197 198 196 0
-183 198 202 199 197 0
-184 199 203 200 198 0
-185 200 199 0
-186 201 204 196 0
-187 202 205 198 203 0
-188 203 206 199 202 0
-189 204 207 201 0
-190 205 202 206 0
-191 206 209 203 205 0
-192 207 204 208 0
-193 208 207 0
-194 209 206 210 0
-195 210 209 0
-196 211 216 212 0
-197 212 213 211 0
-198 213 217 214 212 0
-199 214 218 215 213 0
-200 215 214 0
-201 216 219 211 0
-202 217 220 213 218 0
-203 218 221 214 217 0
-204 219 222 216 0
-205 220 217 221 0
-206 221 224 218 220 0
-207 222 219 223 0
-208 223 222 0
-209 224 221 225 0
-210 225 224 0
-211 226 231 227 0
-212 227 228 226 0
-213 228 232 229 227 0
-214 229 233 230 228 0
-215 230 229 0
-216 231 234 226 0
-217 232 235 228 233 0
-218 233 236 229 232 0
-219 234 237 231 0
-220 235 232 236 0
-221 236 239 233 235 0
-222 237 234 238 0
-223 238 237 0
-224 239 236 240 0
-225 240 239 0
-226 241 246 242 0
-227 242 243 241 0
-228 243 247 244 242 0
-229 244 248 245 243 0
-230 245 244 0
-231 246 249 241 0
-232 247 250 243 248 0
-233 248 251 244 247 0
-234 249 252 246 0
-235 250 247 251 0
-236 251 254 248 250 0
-237 252 249 253 0
-238 253 252 0
-239 254 251 255 0
-240 255 254 0
-241 256 261 257 0
-242 257 258 256 0
-243 258 262 259 257 0
-244 259 263 260 258 0
-245 260 259 0
-246 261 264 256 0
-247 262 265 258 263 0
-248 263 266 259 262 0
-249 264 267 261 0
-250 265 262 266 0
-251 266 269 263 265 0
-252 267 264 268 0
-253 268 267 0
-254 269 266 270 0
-255 270 269 0
-256 271 276 272 0
-257 272 273 271 0
-258 273 277 274 272 0
-259 274 278 275 273 0
-260 275 274 0
-261 276 279 271 0
-262 277 280 273 278 0
-263 278 281 274 277 0
-264 279 282 276 0
-265 280 277 281 0
-266 281 284 278 280 0
-267 282 279 283 0
-268 283 282 0
-269 284 281 285 0
-270 285 284 0
-271 286 291 287 0
-272 287 288 286 0
-273 288 292 289 287 0
-274 289 293 290 288 0
-275 290 289 0
-276 291 294 286 0
-277 292 295 288 293 0
-278 293 296 289 292 0
-279 294 297 291 0
-280 295 292 296 0
-281 296 299 293 295 0
-282 297 294 298 0
-283 298 297 0
-284 299 296 300 0
-285 300 299 0
-301 316 321 317 0
-302 317 318 316 0
-303 318 322 319 317 0
-304 319 323 320 318 0
-305 320 319 0
-306 321 324 316 0
-307 322 325 318 323 0
-308 323 326 319 322 0
-309 324 327 321 0
-310 325 322 326 0
-311 326 329 323 325 0
-312 327 324 328 0
-313 328 327 0
-314 329 326 330 0
-315 330 329 0
-316 331 336 332 0
-317 332 333 331 0
-318 333 337 334 332 0
-319 334 338 335 333 0
-320 335 334 0
-321 336 339 331 0
-322 337 340 333 338 0
-323 338 341 334 337 0
-324 339 342 336 0
-325 340 337 341 0
-326 341 344 338 340 0
-327 342 339 343 0
-328 343 342 0
-329 344 341 345 0
-330 345 344 0
-331 346 351 347 0
-332 347 348 346 0
-333 348 352 349 347 0
-334 349 353 350 348 0
-335 350 349 0
-336 351 354 346 0
-337 352 355 348 353 0
-338 353 356 349 352 0
-339 354 357 351 0
-340 355 352 356 0
-341 356 359 353 355 0
-342 357 354 358 0
-343 358 357 0
-344 359 356 360 0
-345 360 359 0
-346 361 366 362 0
-347 362 363 361 0
-348 363 367 364 362 0
-349 364 368 365 363 0
-350 365 364 0
-351 366 369 361 0
-352 367 370 363 368 0
-353 368 371 364 367 0
-354 369 372 366 0
-355 370 367 371 0
-356 371 374 368 370 0
-357 372 369 373 0
-358 373 372 0
-359 374 371 375 0
-360 375 374 0
-361 376 381 377 0
-362 377 378 376 0
-363 378 382 379 377 0
-364 379 383 380 378 0
-365 380 379 0
-366 381 384 376 0
-367 382 385 378 383 0
-368 383 386 379 382 0
-369 384 387 381 0
-370 385 382 386 0
-371 386 389 383 385 0
-372 387 384 388 0
-373 388 387 0
-374 389 386 390 0
-375 390 389 0
-376 391 396 392 0
-377 392 393 391 0
-378 393 397 394 392 0
-379 394 398 395 393 0
-380 395 394 0
-381 396 399 391 0
-382 397 400 393 398 0
-383 398 401 394 397 0
-384 399 402 396 0
-385 400 397 401 0
-386 401 404 398 400 0
-387 402 399 403 0
-388 403 402 0
-389 404 401 405 0
-390 405 404 0
-391 406 411 407 0
-392 407 408 406 0
-393 408 412 409 407 0
-394 409 413 410 408 0
-395 410 409 0
-396 411 414 406 0
-397 412 415 408 413 0
-398 413 416 409 412 0
-399 414 417 411 0
-400 415 412 416 0
-401 416 419 413 415 0
-402 417 414 418 0
-403 418 417 0
-404 419 416 420 0
-405 420 419 0
-406 421 426 422 0
-407 422 423 421 0
-408 423 427 424 422 0
-409 424 428 425 423 0
-410 425 424 0
-411 426 429 421 0
-412 427 430 423 428 0
-413 428 431 424 427 0
-414 429 432 426 0
-415 430 427 431 0
-416 431 434 428 430 0
-417 432 429 433 0
-418 433 432 0
-419 434 431 435 0
-420 435 434 0
-421 436 441 437 0
-422 437 438 436 0
-423 438 442 439 437 0
-424 439 443 440 438 0
-425 440 439 0
-426 441 444 436 0
-427 442 445 438 443 0
-428 443 446 439 442 0
-429 444 447 441 0
-430 445 442 446 0
-431 446 449 443 445 0
-432 447 444 448 0
-433 448 447 0
-434 449 446 450 0
-435 450 449 0
-436 451 456 452 0
-437 452 453 451 0
-438 453 457 454 452 0
-439 454 458 455 453 0
-440 455 454 0
-441 456 459 451 0
-442 457 460 453 458 0
-443 458 461 454 457 0
-444 459 462 456 0
-445 460 457 461 0
-446 461 464 458 460 0
-447 462 459 463 0
-448 463 462 0
-449 464 461 465 0
-450 465 464 0
-451 466 471 467 0
-452 467 468 466 0
-453 468 472 469 467 0
-454 469 473 470 468 0
-455 470 469 0
-456 471 474 466 0
-457 472 475 468 473 0
-458 473 476 469 472 0
-459 474 477 471 0
-460 475 472 476 0
-461 476 479 473 475 0
-462 477 474 478 0
-463 478 477 0
-464 479 476 480 0
-465 480 479 0
-466 481 486 482 0
-467 482 483 481 0
-468 483 487 484 482 0
-469 484 488 485 483 0
-470 485 484 0
-471 486 489 481 0
-472 487 490 483 488 0
-473 488 491 484 487 0
-474 489 492 486 0
-475 490 487 491 0
-476 491 494 488 490 0
-477 492 489 493 0
-478 493 492 0
-479 494 491 495 0
-480 495 494 0
-481 496 501 497 0
-482 497 498 496 0
-483 498 502 499 497 0
-484 499 503 500 498 0
-485 500 499 0
-486 501 504 496 0
-487 502 505 498 503 0
-488 503 506 499 502 0
-489 504 507 501 0
-490 505 502 506 0
-491 506 509 503 505 0
-492 507 504 508 0
-493 508 507 0
-494 509 506 510 0
-495 510 509 0
-496 511 516 512 0
-497 512 513 511 0
-498 513 517 514 512 0
-499 514 518 515 513 0
-500 515 514 0
-501 516 519 511 0
-502 517 520 513 518 0
-503 518 521 514 517 0
-504 519 522 516 0
-505 520 517 521 0
-506 521 524 518 520 0
-507 522 519 523 0
-508 523 522 0
-509 524 521 525 0
-510 525 524 0
-511 526 531 527 0
-512 527 528 526 0
-513 528 532 529 527 0
-514 529 533 530 528 0
-515 530 529 0
-516 531 534 526 0
-517 532 535 528 533 0
-518 533 536 529 532 0
-519 534 537 531 0
-520 535 532 536 0
-521 536 539 533 535 0
-522 537 534 538 0
-523 538 537 0
-524 539 536 540 0
-525 540 539 0
-526 541 546 542 0
-527 542 543 541 0
-528 543 547 544 542 0
-529 544 548 545 543 0
-530 545 544 0
-531 546 549 541 0
-532 547 550 543 548 0
-533 548 551 544 547 0
-534 549 552 546 0
-535 550 547 551 0
-536 551 554 548 550 0
-537 552 549 553 0
-538 553 552 0
-539 554 551 555 0
-540 555 554 0
-541 556 561 557 0
-542 557 558 556 0
-543 558 562 559 557 0
-544 559 563 560 558 0
-545 560 559 0
-546 561 564 556 0
-547 562 565 558 563 0
-548 563 566 559 562 0
-549 564 567 561 0
-550 565 562 566 0
-551 566 569 563 565 0
-552 567 564 568 0
-553 568 567 0
-554 569 566 570 0
-555 570 569 0
-556 571 576 572 0
-557 572 573 571 0
-558 573 577 574 572 0
-559 574 578 575 573 0
-560 575 574 0
-561 576 579 571 0
-562 577 580 573 578 0
-563 578 581 574 577 0
-564 579 582 576 0
-565 580 577 581 0
-566 581 584 578 580 0
-567 582 579 583 0
-568 583 582 0
-569 584 581 585 0
-570 585 584 0
-571 586 591 587 0
-572 587 588 586 0
-573 588 592 589 587 0
-574 589 593 590 588 0
-575 590 589 0
-576 591 594 586 0
-577 592 595 588 593 0
-578 593 596 589 592 0
-579 594 597 591 0
-580 595 592 596 0
-581 596 599 593 595 0
-582 597 594 598 0
-583 598 597 0
-584 599 596 600 0
-585 600 599 0
1 0
-2 0
-601 0
-602 0
-13 0
-3 0
-7 0
-10 0
-603 0
-4 0
-8 0
-11 0
-14 0
-5 0
-604 0
-605 0
-15 0
309 0
-1 0
-6 0
-9 0
-12 0
-2 0
-601 0
-602 0
-13 0
-3 0
-7 0
-10 0
-603 0
-4 0
-8 0
-11 0
-14 0
-5 0
-604 0
-605 0
-15 0
300 0
-286 0
-291 0
-294 0
-297 0
-287 0
-606 0
-607 0
-298 0
-288 0
-292 0
-295 0
-608 0
-289 0
-293 0
-296 0
-299 0
-290 0
-609 0
-610 0
-300 0
599 0
-286 0
-291 0
-294 0
-297 0
-287 0
-606 0
-607 0
-298 0
-288 0
-292 0
-295 0
-608 0
-289 0
-293 0
-296 0
-290 0
-609 0
-610 0
-300 0
